; pendulumXstanding-quadriceps-stretch
(set-info :status unknown)
(set-logic QF_AUFLIRA)
(declare-fun |HandRight Norm| () Real)
(declare-fun |HandRight Z| () Real)
(declare-fun |SpineMid Norm| () Real)
(declare-fun |SpineShoulder Norm| () Real)
(declare-fun |ShoulderRight Norm| () Real)
(declare-fun |ShoulderRight Z| () Real)
(declare-fun |ElbowRight Norm| () Real)
(declare-fun |ElbowRight Z| () Real)
(declare-fun |WristRight Norm| () Real)
(declare-fun |WristRight Z| () Real)
(declare-fun |AnkleRight Norm| () Real)
(declare-fun |HipRight Norm| () Real)
(declare-fun |HipRight Z| () Real)
(declare-fun |KneeRight Norm| () Real)
(declare-fun |HandRight Y| () Real)
(declare-fun |ShoulderRight Y| () Real)
(declare-fun |ElbowRight Y| () Real)
(declare-fun |WristRight Y| () Real)
(declare-fun |HipRight Y| () Real)
(declare-fun |HandRight X| () Real)
(declare-fun |ShoulderRight X| () Real)
(declare-fun |ElbowRight X| () Real)
(declare-fun |WristRight X| () Real)
(declare-fun |HipRight X| () Real)
(declare-fun |ThumbRight Z| () Real)
(declare-fun |ThumbRight Y| () Real)
(declare-fun |ThumbRight X| () Real)
(assert
(let ((?x3920 (* |HandRight Z| |HandRight Norm|)))
(let ((?x4372 (* 0.0 |SpineMid Norm|)))
(let ((?x10834 (* 0.0 |SpineShoulder Norm|)))
(let ((?x4101 (* |ShoulderRight Z| |ShoulderRight Norm|)))
(let ((?x5251 (* |ElbowRight Z| |ElbowRight Norm|)))
(let ((?x5344 (* |WristRight Z| |WristRight Norm|)))
(let ((?x5111 (+ 0.0 ?x3920)))
(let ((?x4613 (+ ?x5111 ?x5344)))
(let ((?x4022 (+ ?x4613 ?x5251)))
(let ((?x4695 (+ ?x4022 ?x4101)))
(let ((?x12237 (+ ?x4695 ?x10834)))
(let ((?x9090 (+ ?x12237 ?x4372)))
(let ((?x4346 (+ ?x9090 ?x3920)))
(let ((?x2389 (* (~ 1.0) 0.0)))
(let ((?x3991 (* 0.0 (~ 1.0))))
(let ((?x11678 (+ ?x3991 ?x2389)))
(let ((?x958 (* 1.0 0.0)))
(let ((?x5815 (+ ?x3991 ?x958)))
(let (($x134 (>= (~ 1.0) 0.0)))
(let ((?x7104 (ite $x134 ?x5815 ?x11678)))
(let ((?x135 (- 0.0 (~ 1.0))))
(let ((?x136 (ite $x134 (~ 1.0) ?x135)))
(let ((?x113 (- 0.0 0.0)))
(let (($x112 (>= 0.0 0.0)))
(let ((?x114 (ite $x112 0.0 ?x113)))
(let (($x4784 (>= ?x114 ?x136)))
(let ((?x10539 (ite $x4784 (~ 1.0) ?x7104)))
(let ((?x9718 (* (/ 129.0 500.0) ?x10539)))
(let ((?x2109 (* 0.0 0.0)))
(let ((?x1304 (* 1.0 (~ 1.0))))
(let ((?x3066 (+ ?x1304 ?x2109)))
(let ((?x1366 (* (~ 1.0) (~ 1.0))))
(let ((?x2501 (+ ?x1366 ?x2109)))
(let ((?x13906 (ite $x134 ?x2501 ?x3066)))
(let ((?x9289 (+ ?x958 ?x2109)))
(let ((?x12245 (+ ?x2389 ?x2109)))
(let ((?x2080 (ite $x112 ?x12245 ?x9289)))
(let ((?x11161 (ite $x4784 ?x2080 ?x13906)))
(let ((?x5776 (* (/ 193.0 200.0) ?x11161)))
(let (($x9630 (>= ?x11161 0.0)))
(let ((?x5319 (- 0.0 ?x11161)))
(let ((?x9468 (ite $x9630 ?x11161 ?x5319)))
(let ((?x10592 (+ ?x2109 ?x2389)))
(let ((?x4322 (+ ?x2109 ?x958)))
(let ((?x4163 (ite $x112 ?x4322 ?x10592)))
(let ((?x7055 (ite $x4784 ?x4163 0.0)))
(let ((?x8973 (- 0.0 ?x7055)))
(let (($x2841 (>= ?x7055 0.0)))
(let ((?x9625 (ite $x2841 ?x7055 ?x8973)))
(let (($x5895 (>= ?x9625 ?x9468)))
(let ((?x7972 (ite $x5895 ?x11161 (ite $x9630 (+ ?x5776 (* (~ (/ 129.0 500.0)) ?x10539)) (+ ?x5776 ?x9718)))))
(let ((?x4647 (* ?x7972 |AnkleRight Norm|)))
(let ((?x279 (* |HipRight Z| |HipRight Norm|)))
(let ((?x8896 (- (+ (+ (+ (+ 0.0 ?x4647) (* 0.0 |KneeRight Norm|)) ?x279) ?x4647) ?x4346)))
(let ((?x4555 (ite (>= ?x8896 0.0) ?x8896 (- 0.0 ?x8896))))
(let ((?x4421 (* |HandRight Y| |HandRight Norm|)))
(let ((?x9973 (* 1.0 |SpineMid Norm|)))
(let ((?x7483 (* 1.0 |SpineShoulder Norm|)))
(let ((?x5302 (* |ShoulderRight Y| |ShoulderRight Norm|)))
(let ((?x5405 (* |ElbowRight Y| |ElbowRight Norm|)))
(let ((?x4865 (* |WristRight Y| |WristRight Norm|)))
(let ((?x4697 (+ 0.0 ?x4421)))
(let ((?x4533 (+ ?x4697 ?x4865)))
(let ((?x5310 (+ ?x4533 ?x5405)))
(let ((?x5396 (+ ?x5310 ?x5302)))
(let ((?x11912 (+ ?x5396 ?x7483)))
(let ((?x8735 (+ ?x11912 ?x9973)))
(let ((?x9304 (+ ?x8735 ?x4421)))
(let ((?x1247 (ite $x9630 (+ (* (/ 129.0 500.0) ?x11161) (* (/ 193.0 200.0) ?x10539)) (+ (* (~ (/ 129.0 500.0)) ?x11161) (* (/ 193.0 200.0) ?x10539)))))
(let ((?x5663 (ite $x2841 (+ (* (/ 129.0 500.0) ?x7055) (* (/ 193.0 200.0) ?x10539)) (+ (* (~ (/ 129.0 500.0)) ?x7055) (* (/ 193.0 200.0) ?x10539)))))
(let ((?x10031 (ite $x5895 ?x5663 ?x1247)))
(let ((?x9397 (* ?x10031 |AnkleRight Norm|)))
(let ((?x6435 (* |HipRight Y| |HipRight Norm|)))
(let ((?x9748 (- (+ (+ (+ (+ 0.0 ?x9397) (* (~ 1.0) |KneeRight Norm|)) ?x6435) ?x9397) ?x9304)))
(let ((?x9723 (ite (>= ?x9748 0.0) ?x9748 (- 0.0 ?x9748))))
(let ((?x5582 (* |HandRight X| |HandRight Norm|)))
(let ((?x5113 (* |ShoulderRight X| |ShoulderRight Norm|)))
(let ((?x5038 (* |ElbowRight X| |ElbowRight Norm|)))
(let ((?x3199 (* |WristRight X| |WristRight Norm|)))
(let ((?x4842 (+ 0.0 ?x5582)))
(let ((?x2189 (+ ?x4842 ?x3199)))
(let ((?x3677 (+ ?x2189 ?x5038)))
(let ((?x4996 (+ ?x3677 ?x5113)))
(let ((?x9678 (+ ?x4996 ?x10834)))
(let ((?x7644 (+ ?x9678 ?x4372)))
(let ((?x707 (+ ?x7644 ?x5582)))
(let ((?x9636 (ite $x2841 (+ (* (/ 193.0 200.0) ?x7055) (* (~ (/ 129.0 500.0)) ?x10539)) (+ (* (/ 193.0 200.0) ?x7055) ?x9718))))
(let ((?x1402 (ite $x5895 ?x9636 ?x7055)))
(let ((?x5755 (* ?x1402 |AnkleRight Norm|)))
(let ((?x277 (* |HipRight X| |HipRight Norm|)))
(let ((?x6659 (- (+ (+ (+ (+ 0.0 ?x5755) (* 0.0 |KneeRight Norm|)) ?x277) ?x5755) ?x707)))
(let ((?x6206 (ite (>= ?x6659 0.0) ?x6659 (- 0.0 ?x6659))))
(let ((?x8323 (ite (>= ?x6206 ?x9723) ?x6206 ?x9723)))
(let ((?x4142 (* ?x11161 |AnkleRight Norm|)))
(let ((?x7777 (- (+ (+ (+ (+ 0.0 ?x4142) (* 0.0 |KneeRight Norm|)) ?x279) ?x4142) ?x4346)))
(let ((?x11420 (ite (>= ?x7777 0.0) ?x7777 (- 0.0 ?x7777))))
(let ((?x7926 (* ?x10539 |AnkleRight Norm|)))
(let ((?x6374 (- (+ (+ (+ (+ 0.0 ?x7926) (* (~ 1.0) |KneeRight Norm|)) ?x6435) ?x7926) ?x9304)))
(let ((?x5030 (ite (>= ?x6374 0.0) ?x6374 (- 0.0 ?x6374))))
(let ((?x2855 (* ?x7055 |AnkleRight Norm|)))
(let ((?x4418 (- (+ (+ (+ (+ 0.0 ?x2855) (* 0.0 |KneeRight Norm|)) ?x277) ?x2855) ?x707)))
(let ((?x13890 (ite (>= ?x4418 0.0) ?x4418 (- 0.0 ?x4418))))
(let ((?x9105 (ite (>= ?x13890 ?x5030) ?x13890 ?x5030)))
(let (($x6883 (and true true)))
(let (($x9026 (and $x6883 true)))
(let (($x6646 (and (and $x9026 (and true (< (ite (>= ?x9105 ?x11420) ?x9105 ?x11420) (/ 1.0 5.0)))) (and true (< (ite (>= ?x8323 ?x4555) ?x8323 ?x4555) (/ 1.0 5.0))))))
(let (($x13771 (and $x9026 true)))
(let (($x9593 (and $x13771 true)))
(let (($x8461 (and $x9593 true)))
(let (($x4245 (and $x8461 true)))
(let (($x11197 (and $x4245 true)))
(let (($x8629 (and $x11197 true)))
(let (($x2034 (and $x8629 true)))
(let (($x10868 (and $x2034 true)))
(let ((?x9194 (- |ThumbRight Z| |ThumbRight Z|)))
(let ((?x8486 (- 0.0 ?x9194)))
(let (($x6679 (>= ?x9194 0.0)))
(let ((?x8796 (ite $x6679 ?x9194 ?x8486)))
(let ((?x7398 (- |ThumbRight Y| |ThumbRight Y|)))
(let ((?x2945 (- 0.0 ?x7398)))
(let (($x2946 (>= ?x7398 0.0)))
(let ((?x10061 (ite $x2946 ?x7398 ?x2945)))
(let ((?x9143 (- |ThumbRight X| |ThumbRight X|)))
(let ((?x8632 (- 0.0 ?x9143)))
(let (($x4961 (>= ?x9143 0.0)))
(let ((?x11066 (ite $x4961 ?x9143 ?x8632)))
(let (($x9863 (>= ?x11066 ?x10061)))
(let ((?x2010 (ite $x9863 ?x11066 ?x10061)))
(let (($x8858 (>= ?x2010 ?x8796)))
(let ((?x7351 (ite $x8858 ?x2010 ?x8796)))
(let (($x10727 (< ?x7351 15.0)))
(let (($x9765 (and $x10727)))
(and $x9765 $x10868 $x6646))))))))))))))))))))))))))))))))))))))))))))))))))))))))))))))))))))))))))))))))))))))))))))))))))))))))))))))))))))))))))))))))))))))
(check-sat)
